Route #1: 0 31 66 22 56 5 46 0
Route #2: 0 34 62 12 15 6 9 33 53 0
Route #3: 0 24 58 38 40 50 54 28 61 0
Route #4: 0 26 57 42 47 4 60 65 27 0
Route #5: 0 19 23 18 64 67 11 0
Route #6: 0 44 68 20 59 48 1 16 37 0
Route #7: 0 2 49 51 13 35 17 14 55 21 7 0
Route #8: 0 25 32 10 36 39 29 43 0
Route #9: 0 63 52 8 41 45 3 30 0
Cost 1985:
